************************************************************************
file with basedata            : mm56_.bas
initial value random generator: 1767255245
************************************************************************
projects                      :  1
jobs (incl. supersource/sink ):  12
horizon                       :  91
RESOURCES
  - renewable                 :  2   R
  - nonrenewable              :  2   N
  - doubly constrained        :  0   D
************************************************************************
PROJECT INFORMATION:
pronr.  #jobs rel.date duedate tardcost  MPM-Time
    1     10      0       13        7       13
************************************************************************
PRECEDENCE RELATIONS:
jobnr.    #modes  #successors   successors
   1        1          3           2   3   4
   2        3          3           5   9  11
   3        3          1           6
   4        3          3           6   7   8
   5        3          1          10
   6        3          1          11
   7        3          1          10
   8        3          2          10  11
   9        3          1          12
  10        3          1          12
  11        3          1          12
  12        1          0        
************************************************************************
REQUESTS/DURATIONS:
jobnr. mode duration  R 1  R 2  N 1  N 2
------------------------------------------------------------------------
  1      1     0       0    0    0    0
  2      1     2       6   10    6   10
         2     6       6   10    5   10
         3     9       5    9    3   10
  3      1     4       9    6    6    7
         2     7       8    4    5    5
         3     9       7    3    5    4
  4      1     2       8    6    9    2
         2    10       4    5    6    1
         3    10       5    6    3    1
  5      1     1       4    7    6    8
         2     1       4    6    7    8
         3     9       3    3    2    5
  6      1     4       4    4    5    7
         2     5       3    3    4    7
         3    10       2    2    3    7
  7      1     4       9    9    4    5
         2     8       4    8    4    4
         3    10       4    7    3    3
  8      1     4       6    7    6    6
         2     7       4    7    5    5
         3     9       1    3    4    4
  9      1     3       5    3    2    6
         2     7       4    3    2    6
         3     8       3    1    1    6
 10      1     1       5    7    3    9
         2     3       4    6    3    8
         3     8       2    5    1    6
 11      1     5       7    6    5    7
         2     8       7    6    3    7
         3     9       7    2    2    7
 12      1     0       0    0    0    0
************************************************************************
RESOURCEAVAILABILITIES:
  R 1  R 2  N 1  N 2
   25   25   53   67
************************************************************************
************************************************************************
MAXIMAL LAGS:
from  to  type  delay
    1    2   SE     -1
    1    3   SS     -3
    1    4   ES     -3
    2    5   SS      3
    2    9   ES      5
    2   11   SS      5
    3    6   SS      1
    4    6   ES     -1
    4    7   EE      4
    4    8   SE      5
    5   10   SE      3
    6   11   SE      5
    7   10   SS      3
    8   10   ES      0
    8   11   SE     -2
    9   12   SE      3
   10   12   ES     -1
   11   12   ES      3
************************************************************************
